\ENCODING=ISO-8859-1
\Problem name: ilog.cplex

Minimize
 obj1: x_0_1 - x_0_2 - x_0_3 - x_0_4 - x_0_5 - x_0_6 - x_0_7 - x_0_8 - x_0_9
       + x_0_10 - x_0_11 + x_0_12 + x_0_14 - x_16_17 - x_16_18 - x_16_19
       - x_16_20 - x_16_21 + x_16_23 + x_0_24 + x_16_24 + x_0_25 - x_16_25
       - x_16_30 + x_0_31 - x_1_2 - x_1_3 - x_1_4 - x_1_5 - x_1_6 - x_1_7
       - x_1_8 - x_1_9 - x_1_10 - x_1_13 + x_1_15 - x_17_18 + x_17_19 - x_1_20
       - x_17_20 - x_17_21 + x_1_24 + x_1_26 + x_17_31 - x_2_3 - x_2_4 + x_2_5
       - x_2_6 - x_2_7 - x_2_8 - x_2_9 - x_2_10 + x_2_14 + x_2_17 - x_18_19
       - x_18_20 - x_18_21 - x_2_22 + x_18_23 - x_2_29 - x_3_4 + x_3_5 - x_3_6
       - x_3_7 - x_3_8 - x_3_9 - x_3_10 - x_3_12 + x_3_13 - x_19_20 - x_19_21
       + x_19_22 + x_3_23 - x_3_24 + x_19_26 + x_3_27 - x_4_5 - x_4_6 - x_4_7
       - x_4_8 - x_4_9 - x_4_10 + x_4_11 + x_4_14 + x_4_15 + x_4_17 - x_20_21
       + x_20_25 - x_20_26 + x_4_28 - x_4_29 + x_4_30 + x_4_31 - x_5_6 - x_5_7
       - x_5_8 - x_5_9 - x_5_10 + x_5_11 + x_5_12 - x_5_14 - x_5_19 - x_5_20
       - x_21_22 + x_21_24 + x_21_25 - x_5_26 - x_21_27 - x_5_28 + x_5_30
       - x_6_7 - x_6_8 - x_6_9 - x_6_10 - x_6_14 + x_6_17 + x_6_18 + x_6_21
       + x_6_23 - x_22_23 - x_22_24 + x_6_25 - x_22_25 - x_22_26 - x_22_27
       - x_22_28 + x_6_29 - x_22_29 - x_6_30 - x_22_30 - x_6_31 - x_22_31
       - x_7_8 - x_7_9 - x_7_10 + x_7_11 + x_7_12 - x_7_13 - x_7_14 - x_7_15
       + x_7_16 + x_7_24 - x_23_24 - x_23_25 - x_23_26 - x_23_27 - x_23_28
       - x_23_29 - x_23_30 - x_23_31 - x_8_9 - x_8_10 - x_8_13 + x_8_14
       - x_24_25 - x_24_26 - x_8_27 - x_24_27 - x_24_28 - x_24_29 - x_24_30
       - x_24_31 - x_9_10 + x_9_12 + x_9_13 + x_25_26 - x_25_27 - x_25_28
       + x_9_29 - x_25_29 - x_25_30 - x_25_31 + x_10_16 + x_10_27 - x_26_27
       + x_10_28 - x_26_28 - x_26_29 - x_26_30 - x_26_31 - x_11_12 + x_11_13
       - x_11_14 - x_11_15 - x_11_16 - x_11_17 - x_11_18 - x_11_19 - x_11_20
       - x_11_21 + x_11_22 - x_11_25 + x_11_26 - x_11_28 - x_27_28 - x_27_29
       + x_11_30 - x_27_30 + x_11_31 - x_27_31 - x_12_13 - x_12_14 - x_12_15
       - x_12_16 - x_12_17 - x_12_18 - x_12_19 - x_12_20 - x_12_21 + x_12_23
       + x_12_25 + x_28_29 + x_12_30 - x_28_30 - x_28_31 + x_13_14 - x_13_15
       - x_13_16 - x_13_17 - x_13_18 - x_13_19 - x_13_20 - x_13_21 - x_13_22
       - x_13_30 - x_29_30 - x_29_31 - x_14_15 - x_14_16 - x_14_17 - x_14_18
       - x_14_19 - x_14_20 - x_14_21 + x_14_27 + x_14_28 - x_14_31 - x_30_31
       - x_15_16 - x_15_17 - x_15_18 - x_15_19 - x_15_20 - x_15_21 + x_15_30
       + x_15_31 + 177
Subject To
 c1:   - x_0_1 + x_0_2 + x_1_2 <= 1
 c2:   x_0_2 - x_0_10 + x_2_10 <= 1
 c3:   x_0_5 - x_0_14 + x_5_14 <= 1
 c4:   x_4_5 - x_4_14 + x_5_14 <= 1
 c5:   x_5_8 + x_5_14 - x_8_14 <= 1
 c6:   x_4_7 - x_4_15 + x_7_15 <= 1
 c7:   - x_16_23 + x_16_25 + x_23_25 <= 1
 c8:   x_16_25 + x_23_25 + x_12_16 - x_12_23 <= 2
 c9:   - x_16_24 + x_16_25 + x_24_25 <= 1
 c10:  x_16_20 + x_16_25 - x_20_25 <= 1
 c11:  x_16_25 + x_12_16 - x_12_25 <= 1
 c12:  x_4_5 - x_4_28 + x_5_28 <= 1
 c13:  x_24_28 + x_24_29 - x_28_29 <= 1
 c14:  x_4_6 - x_4_30 + x_6_30 <= 1
 c15:  x_16_30 + x_12_16 - x_12_30 <= 1
 c16:  x_0_6 - x_0_31 + x_6_31 <= 1
 c17:  x_4_6 - x_4_31 + x_6_31 <= 1
 c18:  x_0_5 + x_0_11 - x_5_11 <= 1
 c19:  - x_5_12 + x_5_14 + x_12_14 <= 1
 c20:  x_3_9 + x_3_12 - x_9_12 <= 1
 c21:  x_8_9 + x_8_13 - x_9_13 <= 1
 c22:  x_12_13 + x_12_14 - x_13_14 <= 1
 c23:  - x_1_15 + x_1_20 + x_15_20 <= 1
 c24:  x_16_17 + x_16_19 - x_17_19 <= 1
 c25:  x_1_3 - x_1_24 + x_3_24 <= 1
 c26:  x_21_22 - x_21_24 + x_22_24 <= 1
 c27:  x_16_21 + x_16_25 - x_21_25 <= 1
 c28:  x_24_25 + x_24_26 - x_25_26 <= 1
 c29:  x_2_9 + x_2_29 - x_9_29 <= 1
 c30:  x_5_6 - x_5_30 + x_6_30 <= 1
 c31:  - x_17_31 + x_14_17 + x_14_31 <= 1
 c32:  x_0_2 + x_0_5 - x_2_5 <= 1
 c33:  x_2_6 - x_2_14 + x_6_14 <= 1
 c34:  x_8_10 + x_8_13 - x_10_16 + x_13_16 <= 2
 c35:  x_6_14 - x_6_17 + x_14_17 <= 1
 c36:  x_6_14 - x_6_18 + x_14_18 <= 1
 c37:  x_6_14 - x_6_21 + x_14_21 <= 1
 c38:  x_16_18 + x_16_25 - x_18_23 + x_23_25 <= 2
 c39:  - x_6_23 + x_6_30 + x_23_30 <= 1
 c40:  - x_6_25 + x_6_30 + x_25_30 <= 1
 c41:  x_8_10 + x_8_27 - x_10_27 <= 1
 c42:  x_21_27 + x_14_21 - x_14_27 <= 1
 c43:  x_5_10 + x_5_28 - x_10_28 <= 1
 c44:  x_11_14 + x_11_28 - x_14_28 <= 1
 c45:  x_2_6 + x_2_29 - x_6_29 <= 1
 c46:  x_0_3 + x_0_5 - x_3_5 <= 1
 c47:  x_0_7 + x_0_11 - x_7_11 <= 1
 c48:  x_3_7 + x_3_12 - x_7_12 <= 1
 c49:  x_1_3 + x_1_13 - x_3_13 <= 1
 c50:  - x_11_13 + x_11_16 + x_13_16 <= 1
 c51:  x_7_13 - x_7_16 + x_13_16 <= 1
 c52:  - x_19_22 + x_13_19 + x_13_22 <= 1
 c53:  x_21_22 + x_11_21 - x_11_22 <= 1
 c54:  - x_3_23 + x_3_24 + x_23_24 <= 1
 c55:  x_3_7 + x_3_24 - x_7_24 <= 1
 c56:  x_20_26 + x_11_20 - x_11_26 <= 1
 c57:  x_3_8 - x_3_27 + x_8_27 <= 1
 c58:  x_16_30 + x_11_16 - x_11_30 <= 1
 c59:  x_16_30 + x_15_16 - x_15_30 <= 1
 c60:  x_25_31 + x_11_25 - x_11_31 <= 1
 c61:  x_14_15 + x_14_31 - x_15_31 <= 1
 c62:  - x_0_1 + x_0_4 + x_1_4 <= 1
 c63:  - x_0_2 + x_0_3 + x_2_3 <= 1
 c64:  x_0_3 - x_0_10 + x_3_10 <= 1
 c65:  x_0_5 - x_0_11 + x_5_19 + x_11_19 <= 2
 c66:  x_4_5 - x_4_11 + x_5_19 + x_11_19 <= 2
 c67:  x_0_5 - x_0_12 + x_5_19 + x_12_19 <= 2
 c68:  x_1_8 + x_1_13 - x_8_13 <= 1
 c69:  - x_12_13 + x_12_17 + x_13_17 <= 1
 c70:  x_0_7 - x_0_14 + x_7_14 <= 1
 c71:  x_7_8 + x_7_14 - x_8_14 <= 1
 c72:  - x_16_17 + x_11_16 + x_11_17 <= 1
 c73:  x_1_4 + x_1_13 - x_4_17 + x_13_17 <= 2
 c74:  - x_16_23 + x_23_28 + x_11_16 + x_11_28 <= 2
 c75:  x_19_22 + x_22_23 + x_12_19 - x_12_23 <= 2
 c76:  x_16_19 - x_16_24 + x_19_22 + x_22_24 <= 2
 c77:  - x_16_25 + x_25_28 + x_11_16 + x_11_28 <= 2
 c78:  x_19_20 + x_19_22 - x_20_25 + x_22_25 <= 2
 c79:  x_22_24 + x_22_25 - x_24_25 <= 1
 c80:  x_19_22 + x_22_25 + x_12_19 - x_12_25 <= 2
 c81:  x_19_20 + x_19_26 - x_20_26 <= 1
 c82:  x_2_8 + x_2_22 + x_22_27 - x_8_27 <= 2
 c83:  x_2_4 + x_2_22 - x_4_28 + x_22_28 <= 2
 c84:  x_22_24 + x_22_28 - x_24_28 <= 1
 c85:  x_25_28 + x_25_29 - x_28_29 <= 1
 c86:  - x_16_30 + x_11_16 + x_11_28 + x_28_30 <= 2
 c87:  x_4_29 - x_4_30 + x_29_30 <= 1
 c88:  x_12_17 - x_12_30 + x_13_17 + x_13_30 <= 2
 c89:  x_4_29 - x_4_31 + x_29_31 <= 1
 c90:  x_1_2 - x_1_3 + x_2_3 <= 1
 c91:  - x_5_11 + x_5_19 + x_11_19 <= 1
 c92:  - x_5_12 + x_5_19 + x_12_19 <= 1
 c93:  x_5_9 + x_5_19 - x_9_12 + x_12_19 <= 2
 c94:  x_1_9 + x_1_13 - x_9_13 <= 1
 c95:  - x_5_14 + x_5_19 + x_14_19 <= 1
 c96:  - x_13_14 + x_13_17 + x_14_17 <= 1
 c97:  x_1_7 - x_1_15 + x_7_15 <= 1
 c98:  x_16_18 - x_13_16 + x_13_18 <= 1
 c99:  - x_17_19 + x_11_17 + x_11_19 <= 1
 c100: x_19_21 + x_19_22 - x_21_22 <= 1
 c101: x_1_2 - x_1_24 + x_2_22 + x_22_24 <= 2
 c102: x_19_21 + x_19_22 - x_21_24 + x_22_24 <= 2
 c103: x_19_21 + x_19_22 - x_21_25 + x_22_25 <= 2
 c104: x_22_25 + x_22_26 - x_25_26 <= 1
 c105: x_19_21 + x_19_22 - x_21_27 + x_22_27 <= 2
 c106: x_5_26 - x_5_28 + x_26_28 <= 1
 c107: x_4_9 + x_4_29 - x_9_29 <= 1
 c108: x_5_26 - x_5_30 + x_26_30 <= 1
 c109: - x_17_31 + x_11_17 + x_11_28 + x_28_31 <= 2
 c110: x_1_2 + x_1_5 - x_2_5 <= 1
 c111: x_2_7 - x_2_14 + x_7_14 <= 1
 c112: x_6_7 - x_6_14 + x_7_14 <= 1
 c113: x_16_19 + x_5_10 + x_5_19 - x_10_16 <= 2
 c114: x_1_2 + x_1_13 - x_2_17 + x_13_17 <= 2
 c115: x_1_6 + x_1_13 - x_6_17 + x_13_17 <= 2
 c116: x_1_6 + x_1_13 - x_6_18 + x_13_18 <= 2
 c117: x_1_6 + x_1_13 - x_6_21 + x_13_21 <= 2
 c118: - x_18_23 + x_23_28 + x_11_18 + x_11_28 <= 2
 c119: x_2_6 + x_2_22 - x_6_23 + x_22_23 <= 2
 c120: x_2_6 + x_2_22 - x_6_25 + x_22_25 <= 2
 c121: x_2_10 + x_2_22 + x_22_27 - x_10_27 <= 2
 c122: x_19_22 + x_22_27 + x_14_19 - x_14_27 <= 2
 c123: x_2_10 + x_2_22 + x_22_28 - x_10_28 <= 2
 c124: x_11_16 + x_11_28 + x_14_16 - x_14_28 <= 2
 c125: x_2_4 - x_2_29 + x_4_29 <= 1
 c126: x_4_6 + x_4_29 - x_6_29 <= 1
 c127: x_2_6 + x_2_22 - x_6_31 + x_22_31 <= 2
 c128: x_19_22 + x_22_31 + x_14_19 - x_14_31 <= 2
 c129: - x_7_11 + x_7_15 + x_11_15 <= 1
 c130: - x_7_12 + x_7_14 + x_12_14 <= 1
 c131: x_3_7 - x_3_13 + x_7_13 <= 1
 c132: - x_11_13 + x_11_17 + x_13_17 <= 1
 c133: - x_11_14 + x_11_16 + x_14_16 <= 1
 c134: x_7_14 - x_7_16 + x_14_16 <= 1
 c135: x_19_22 + x_11_19 - x_11_22 <= 1
 c136: x_2_3 + x_2_22 - x_3_23 + x_22_23 <= 2
 c137: x_2_3 + x_2_22 - x_3_24 + x_22_24 <= 2
 c138: x_2_7 + x_2_22 + x_22_24 - x_7_24 <= 2
 c139: x_25_28 - x_11_25 + x_11_28 <= 1
 c140: x_19_26 + x_11_19 - x_11_26 <= 1
 c141: x_2_3 + x_2_22 - x_3_27 + x_22_27 <= 2
 c142: x_11_28 - x_11_30 + x_28_30 <= 1
 c143: x_13_15 + x_13_30 - x_15_30 <= 1
 c144: x_11_28 - x_11_31 + x_28_31 <= 1
 c145: x_19_22 + x_22_31 + x_15_19 - x_15_31 <= 2
 c146: x_0_11 - x_0_12 + x_11_12 <= 1
 c147: x_0_8 + x_0_11 - x_8_13 + x_11_13 <= 2
 c148: x_0_11 - x_0_14 + x_11_14 <= 1
 c149: x_0_8 + x_0_11 - x_8_14 + x_11_14 <= 2
 c150: x_1_4 + x_1_15 - x_4_15 <= 1
 c151: - x_16_23 + x_22_23 + x_13_16 + x_13_22 <= 2
 c152: x_22_23 + x_12_13 - x_12_23 + x_13_22 <= 2
 c153: - x_16_24 + x_22_24 + x_13_16 + x_13_22 <= 2
 c154: - x_16_25 + x_22_25 + x_13_16 + x_13_22 <= 2
 c155: - x_20_25 + x_22_25 + x_13_20 + x_13_22 <= 2
 c156: x_22_25 + x_12_13 - x_12_25 + x_13_22 <= 2
 c157: - x_20_26 + x_22_26 + x_13_20 + x_13_22 <= 2
 c158: - x_16_30 + x_22_30 + x_13_16 + x_13_22 <= 2
 c159: x_22_30 + x_12_13 - x_12_30 + x_13_22 <= 2
 c160: - x_5_11 + x_5_20 + x_11_20 <= 1
 c161: - x_5_12 + x_5_20 + x_12_20 <= 1
 c162: x_0_9 + x_0_11 - x_9_12 + x_11_12 <= 2
 c163: - x_1_13 + x_1_20 + x_13_20 <= 1
 c164: x_0_9 + x_0_11 - x_9_13 + x_11_13 <= 2
 c165: - x_5_14 + x_5_20 + x_14_20 <= 1
 c166: x_19_20 - x_5_19 + x_5_20 <= 1
 c167: x_16_19 + x_13_16 - x_13_19 <= 1
 c168: - x_21_22 + x_13_21 + x_13_22 <= 1
 c169: - x_21_24 + x_22_24 + x_13_21 + x_13_22 <= 2
 c170: - x_21_25 + x_22_25 + x_13_21 + x_13_22 <= 2
 c171: - x_21_27 + x_22_27 + x_13_21 + x_13_22 <= 2
 c172: x_22_30 + x_13_22 - x_13_30 <= 1
 c173: - x_17_31 + x_22_31 + x_13_17 + x_13_22 <= 2
 c174: x_0_6 + x_0_11 - x_6_14 + x_11_14 <= 2
 c175: x_0_6 + x_0_11 - x_6_17 + x_11_17 <= 2
 c176: x_0_6 + x_0_11 - x_6_18 + x_11_18 <= 2
 c177: x_0_6 + x_0_11 - x_6_21 + x_11_21 <= 2
 c178: - x_18_23 + x_22_23 + x_13_18 + x_13_22 <= 2
 c179: x_22_27 + x_13_14 + x_13_22 - x_14_27 <= 2
 c180: x_22_28 + x_13_14 + x_13_22 - x_14_28 <= 2
 c181: x_22_31 + x_13_14 + x_13_22 - x_14_31 <= 2
 c182: x_1_7 + x_1_15 - x_7_15 <= 1
 c183: x_16_19 - x_19_22 + x_13_16 + x_13_22 <= 2
 c184: x_11_13 - x_11_22 + x_13_22 <= 1
 c185: x_22_25 + x_11_13 - x_11_25 + x_13_22 <= 2
 c186: x_16_19 - x_19_26 + x_22_26 + x_13_16 + x_13_22 <= 3
 c187: x_22_26 + x_11_13 - x_11_26 + x_13_22 <= 2
 c188: x_22_28 + x_11_13 - x_11_28 + x_13_22 <= 2
 c189: x_22_30 + x_11_13 - x_11_30 + x_13_22 <= 2
 c190: x_22_30 + x_13_15 + x_13_22 - x_15_30 <= 2
 c191: x_22_31 + x_11_13 - x_11_31 + x_13_22 <= 2
 c192: x_22_31 + x_13_15 + x_13_22 - x_15_31 <= 2
 c193: - x_0_1 + x_0_6 + x_1_6 <= 1
 c194: - x_0_2 + x_0_6 + x_2_6 <= 1
 c195: - x_0_3 + x_0_6 + x_3_6 <= 1
 c196: - x_0_4 + x_0_5 + x_4_5 <= 1
 c197: x_0_5 - x_0_10 + x_5_10 <= 1
 c198: x_1_4 - x_1_5 + x_4_5 <= 1
 c199: x_2_4 - x_2_5 + x_4_5 <= 1
 c200: x_3_4 - x_3_5 + x_4_5 <= 1
Bounds
 0 <= x_0_1 <= 1
 0 <= x_0_2 <= 1
 0 <= x_0_3 <= 1
 0 <= x_0_4 <= 1
 0 <= x_0_5 <= 1
 0 <= x_0_6 <= 1
 0 <= x_0_7 <= 1
 0 <= x_0_8 <= 1
 0 <= x_0_9 <= 1
 0 <= x_0_10 <= 1
 0 <= x_0_11 <= 1
 0 <= x_0_12 <= 1
 0 <= x_0_14 <= 1
 0 <= x_16_17 <= 1
 0 <= x_16_18 <= 1
 0 <= x_16_19 <= 1
 0 <= x_16_20 <= 1
 0 <= x_16_21 <= 1
 0 <= x_16_23 <= 1
 0 <= x_0_24 <= 1
 0 <= x_16_24 <= 1
 0 <= x_0_25 <= 1
 0 <= x_16_25 <= 1
 0 <= x_16_30 <= 1
 0 <= x_0_31 <= 1
 0 <= x_1_2 <= 1
 0 <= x_1_3 <= 1
 0 <= x_1_4 <= 1
 0 <= x_1_5 <= 1
 0 <= x_1_6 <= 1
 0 <= x_1_7 <= 1
 0 <= x_1_8 <= 1
 0 <= x_1_9 <= 1
 0 <= x_1_10 <= 1
 0 <= x_1_13 <= 1
 0 <= x_1_15 <= 1
 0 <= x_17_18 <= 1
 0 <= x_17_19 <= 1
 0 <= x_1_20 <= 1
 0 <= x_17_20 <= 1
 0 <= x_17_21 <= 1
 0 <= x_1_24 <= 1
 0 <= x_1_26 <= 1
 0 <= x_17_31 <= 1
 0 <= x_2_3 <= 1
 0 <= x_2_4 <= 1
 0 <= x_2_5 <= 1
 0 <= x_2_6 <= 1
 0 <= x_2_7 <= 1
 0 <= x_2_8 <= 1
 0 <= x_2_9 <= 1
 0 <= x_2_10 <= 1
 0 <= x_2_14 <= 1
 0 <= x_2_17 <= 1
 0 <= x_18_19 <= 1
 0 <= x_18_20 <= 1
 0 <= x_18_21 <= 1
 0 <= x_2_22 <= 1
 0 <= x_18_23 <= 1
 0 <= x_2_29 <= 1
 0 <= x_3_4 <= 1
 0 <= x_3_5 <= 1
 0 <= x_3_6 <= 1
 0 <= x_3_7 <= 1
 0 <= x_3_8 <= 1
 0 <= x_3_9 <= 1
 0 <= x_3_10 <= 1
 0 <= x_3_12 <= 1
 0 <= x_3_13 <= 1
 0 <= x_19_20 <= 1
 0 <= x_19_21 <= 1
 0 <= x_19_22 <= 1
 0 <= x_3_23 <= 1
 0 <= x_3_24 <= 1
 0 <= x_19_26 <= 1
 0 <= x_3_27 <= 1
 0 <= x_4_5 <= 1
 0 <= x_4_6 <= 1
 0 <= x_4_7 <= 1
 0 <= x_4_8 <= 1
 0 <= x_4_9 <= 1
 0 <= x_4_10 <= 1
 0 <= x_4_11 <= 1
 0 <= x_4_14 <= 1
 0 <= x_4_15 <= 1
 0 <= x_4_17 <= 1
 0 <= x_20_21 <= 1
 0 <= x_20_25 <= 1
 0 <= x_20_26 <= 1
 0 <= x_4_28 <= 1
 0 <= x_4_29 <= 1
 0 <= x_4_30 <= 1
 0 <= x_4_31 <= 1
 0 <= x_5_6 <= 1
 0 <= x_5_7 <= 1
 0 <= x_5_8 <= 1
 0 <= x_5_9 <= 1
 0 <= x_5_10 <= 1
 0 <= x_5_11 <= 1
 0 <= x_5_12 <= 1
 0 <= x_5_14 <= 1
 0 <= x_5_19 <= 1
 0 <= x_5_20 <= 1
 0 <= x_21_22 <= 1
 0 <= x_21_24 <= 1
 0 <= x_21_25 <= 1
 0 <= x_5_26 <= 1
 0 <= x_21_27 <= 1
 0 <= x_5_28 <= 1
 0 <= x_5_30 <= 1
 0 <= x_6_7 <= 1
 0 <= x_6_8 <= 1
 0 <= x_6_9 <= 1
 0 <= x_6_10 <= 1
 0 <= x_6_14 <= 1
 0 <= x_6_17 <= 1
 0 <= x_6_18 <= 1
 0 <= x_6_21 <= 1
 0 <= x_6_23 <= 1
 0 <= x_22_23 <= 1
 0 <= x_22_24 <= 1
 0 <= x_6_25 <= 1
 0 <= x_22_25 <= 1
 0 <= x_22_26 <= 1
 0 <= x_22_27 <= 1
 0 <= x_22_28 <= 1
 0 <= x_6_29 <= 1
 0 <= x_22_29 <= 1
 0 <= x_6_30 <= 1
 0 <= x_22_30 <= 1
 0 <= x_6_31 <= 1
 0 <= x_22_31 <= 1
 0 <= x_7_8 <= 1
 0 <= x_7_9 <= 1
 0 <= x_7_10 <= 1
 0 <= x_7_11 <= 1
 0 <= x_7_12 <= 1
 0 <= x_7_13 <= 1
 0 <= x_7_14 <= 1
 0 <= x_7_15 <= 1
 0 <= x_7_16 <= 1
 0 <= x_7_24 <= 1
 0 <= x_23_24 <= 1
 0 <= x_23_25 <= 1
 0 <= x_23_26 <= 1
 0 <= x_23_27 <= 1
 0 <= x_23_28 <= 1
 0 <= x_23_29 <= 1
 0 <= x_23_30 <= 1
 0 <= x_23_31 <= 1
 0 <= x_8_9 <= 1
 0 <= x_8_10 <= 1
 0 <= x_8_13 <= 1
 0 <= x_8_14 <= 1
 0 <= x_24_25 <= 1
 0 <= x_24_26 <= 1
 0 <= x_8_27 <= 1
 0 <= x_24_27 <= 1
 0 <= x_24_28 <= 1
 0 <= x_24_29 <= 1
 0 <= x_24_30 <= 1
 0 <= x_24_31 <= 1
 0 <= x_9_10 <= 1
 0 <= x_9_12 <= 1
 0 <= x_9_13 <= 1
 0 <= x_25_26 <= 1
 0 <= x_25_27 <= 1
 0 <= x_25_28 <= 1
 0 <= x_9_29 <= 1
 0 <= x_25_29 <= 1
 0 <= x_25_30 <= 1
 0 <= x_25_31 <= 1
 0 <= x_10_16 <= 1
 0 <= x_10_27 <= 1
 0 <= x_26_27 <= 1
 0 <= x_10_28 <= 1
 0 <= x_26_28 <= 1
 0 <= x_26_29 <= 1
 0 <= x_26_30 <= 1
 0 <= x_26_31 <= 1
 0 <= x_11_12 <= 1
 0 <= x_11_13 <= 1
 0 <= x_11_14 <= 1
 0 <= x_11_15 <= 1
 0 <= x_11_16 <= 1
 0 <= x_11_17 <= 1
 0 <= x_11_18 <= 1
 0 <= x_11_19 <= 1
 0 <= x_11_20 <= 1
 0 <= x_11_21 <= 1
 0 <= x_11_22 <= 1
 0 <= x_11_25 <= 1
 0 <= x_11_26 <= 1
 0 <= x_11_28 <= 1
 0 <= x_27_28 <= 1
 0 <= x_27_29 <= 1
 0 <= x_11_30 <= 1
 0 <= x_27_30 <= 1
 0 <= x_11_31 <= 1
 0 <= x_27_31 <= 1
 0 <= x_12_13 <= 1
 0 <= x_12_14 <= 1
 0 <= x_12_15 <= 1
 0 <= x_12_16 <= 1
 0 <= x_12_17 <= 1
 0 <= x_12_18 <= 1
 0 <= x_12_19 <= 1
 0 <= x_12_20 <= 1
 0 <= x_12_21 <= 1
 0 <= x_12_23 <= 1
 0 <= x_12_25 <= 1
 0 <= x_28_29 <= 1
 0 <= x_12_30 <= 1
 0 <= x_28_30 <= 1
 0 <= x_28_31 <= 1
 0 <= x_13_14 <= 1
 0 <= x_13_15 <= 1
 0 <= x_13_16 <= 1
 0 <= x_13_17 <= 1
 0 <= x_13_18 <= 1
 0 <= x_13_19 <= 1
 0 <= x_13_20 <= 1
 0 <= x_13_21 <= 1
 0 <= x_13_22 <= 1
 0 <= x_13_30 <= 1
 0 <= x_29_30 <= 1
 0 <= x_29_31 <= 1
 0 <= x_14_15 <= 1
 0 <= x_14_16 <= 1
 0 <= x_14_17 <= 1
 0 <= x_14_18 <= 1
 0 <= x_14_19 <= 1
 0 <= x_14_20 <= 1
 0 <= x_14_21 <= 1
 0 <= x_14_27 <= 1
 0 <= x_14_28 <= 1
 0 <= x_14_31 <= 1
 0 <= x_30_31 <= 1
 0 <= x_15_16 <= 1
 0 <= x_15_17 <= 1
 0 <= x_15_18 <= 1
 0 <= x_15_19 <= 1
 0 <= x_15_20 <= 1
 0 <= x_15_21 <= 1
 0 <= x_15_30 <= 1
 0 <= x_15_31 <= 1
End
